outputs/case_6.model.txt
investment_decision_staff_and_advisory_staff_dual_role_allowed = False
investment_decision_staff_and_advisory_staff_dual_role_not_allowed = False
manager_investment_restriction = True
investment_advisory_as_gift = False
unauthorized_proxy_trading = False
investment_research_department_established = True
fraudulent_contract = False
proxy_violates_article_7 = False
improper_commission_or_client_recruitment = False
unreasonable_recommendations = False
manager_and_staff_leave_proxy = True
buy_sell_same_securities_as_client = False
concurrent_director_or_manager_broker = False
proxy_recorded = True
conflict_of_interest_behavior = False
dedicated_department_research_or_decision_staff_trade_execution_dual_role = False
dedicated_department_setup = True
financial_accounting_department_established = True
full_delegation_conditions_met = True
inciting_contract_breach = False
non_registered_staff_doing_dedicated_business = False
unsubstantiated_public_predictions = False
dedicated_department_supervisor_qualified = True
internal_audit_department_supervisor_qualified = True
unauthorized_disclosure_of_client_info = False
use_of_alias = False
dedicated_department_established = True
full_delegation_approved = True
internal_audit_department_established = True
superstition_based_investment_advice = False
dedicated_department_staff_qualified = True
loan_or_intermediation_with_client = False
investment_and_advisory_staff_dual_role_conditions = True
profit_loss_sharing_with_client = False
dedicated_department_staff_outside_business = False
misappropriation_of_client_assets = False
allow_others_use_name = False
false_or_misleading_behavior = False
violation_penalty_conditions = False
investment_decision_staff_compatibility = True
internal_audit_department_staff_qualified = True
other_illegal_acts = False
dedicated_department_staff_no_trade_execution_dual_role = True
violate_law = False
internal_audit_staff_qualification = True
clients_are_professional_investors = True
concurrent_director_or_manager_trust = False
proxy_assigned = True
invest_in_other_advisory = False
concurrent_director_or_manager_other_advisory = False
proxy_qualification_equivalent = True
business_at_unregistered_place = False
internal_control_prevents_conflicts = True
prohibited_behaviors = True
investment_decision_staff_compatible_with_other_roles = True
manager_and_staff_leave_proxy_record = True
penalty = False
dedicated_department_staff_restriction = True
violate_authority_orders = False
other_departments_setup = True
full_delegation_approval = True